p edge 949 924
e 1 2
e 1 3
e 1 4
e 1 5
e 1 6
e 1 7
e 1 8
e 1 9
e 1 10
e 1 11
e 1 12
e 1 13
e 1 14
e 1 15
e 1 16
e 1 17
e 1 18
e 1 19
e 1 20
e 1 21
e 1 22
e 1 23
e 1 24
e 1 25
e 1 26
e 1 27
e 1 28
e 1 29
e 1 30
e 1 31
e 1 32
e 1 33
e 1 34
e 1 35
e 1 36
e 1 37
e 1 38
e 1 39
e 1 40
e 1 41
e 1 42
e 1 43
e 1 44
e 1 45
e 1 46
e 1 47
e 1 48
e 1 49
e 1 50
e 1 51
e 1 52
e 53 54
e 53 55
e 53 56
e 53 57
e 53 58
e 53 59
e 53 60
e 53 61
e 53 62
e 53 63
e 53 64
e 53 65
e 53 66
e 53 67
e 53 68
e 53 69
e 53 70
e 53 71
e 53 72
e 53 73
e 53 74
e 53 75
e 53 76
e 53 77
e 53 78
e 53 79
e 53 80
e 53 81
e 53 82
e 53 83
e 53 84
e 53 85
e 53 86
e 53 87
e 53 88
e 53 89
e 53 90
e 53 91
e 53 92
e 53 93
e 53 94
e 53 95
e 53 96
e 53 97
e 53 98
e 53 99
e 53 100
e 53 101
e 53 102
e 53 103
e 53 104
e 53 105
e 53 106
e 53 107
e 53 108
e 53 109
e 53 110
e 53 111
e 53 112
e 53 113
e 53 114
e 53 115
e 53 116
e 117 118
e 117 119
e 117 120
e 117 121
e 117 122
e 117 123
e 117 124
e 117 125
e 117 126
e 117 127
e 117 128
e 117 129
e 117 130
e 117 131
e 117 132
e 117 133
e 117 134
e 117 135
e 117 136
e 117 137
e 117 138
e 117 139
e 117 140
e 117 141
e 117 142
e 117 143
e 144 145
e 144 146
e 144 147
e 144 148
e 144 149
e 144 150
e 144 151
e 144 152
e 144 153
e 144 154
e 144 155
e 144 156
e 144 157
e 144 158
e 144 159
e 144 160
e 144 161
e 144 162
e 144 163
e 144 164
e 144 165
e 144 166
e 144 167
e 144 168
e 144 169
e 144 170
e 144 171
e 144 172
e 144 173
e 144 174
e 144 175
e 144 176
e 144 177
e 144 178
e 144 179
e 144 180
e 144 181
e 144 182
e 144 183
e 144 184
e 144 185
e 144 186
e 144 187
e 144 188
e 144 189
e 144 190
e 144 191
e 144 192
e 144 193
e 144 194
e 144 195
e 196 197
e 196 198
e 196 199
e 196 200
e 196 201
e 196 202
e 196 203
e 196 204
e 196 205
e 196 206
e 196 207
e 196 208
e 196 209
e 196 210
e 196 211
e 196 212
e 196 213
e 196 214
e 196 215
e 196 216
e 196 217
e 196 218
e 196 219
e 196 220
e 196 221
e 196 222
e 196 223
e 196 224
e 196 225
e 196 226
e 196 227
e 196 228
e 196 229
e 196 230
e 196 231
e 196 232
e 196 233
e 196 234
e 196 235
e 196 236
e 196 237
e 196 238
e 196 239
e 196 240
e 196 241
e 196 242
e 196 243
e 196 244
e 196 245
e 196 246
e 196 247
e 196 248
e 196 249
e 196 250
e 196 251
e 196 252
e 196 253
e 196 254
e 196 255
e 196 256
e 257 258
e 257 259
e 257 260
e 257 261
e 257 262
e 257 263
e 257 264
e 257 265
e 257 266
e 257 267
e 257 268
e 257 269
e 257 270
e 257 271
e 257 272
e 257 273
e 257 274
e 257 275
e 257 276
e 257 277
e 278 279
e 278 280
e 278 281
e 278 282
e 278 283
e 278 284
e 278 285
e 278 286
e 278 287
e 278 288
e 278 289
e 278 290
e 278 291
e 278 292
e 278 293
e 278 294
e 278 295
e 278 296
e 278 297
e 278 298
e 278 299
e 278 300
e 278 301
e 278 302
e 278 303
e 278 304
e 278 305
e 278 306
e 278 307
e 278 308
e 278 309
e 278 310
e 278 311
e 278 312
e 278 313
e 278 314
e 278 315
e 278 316
e 278 317
e 278 318
e 278 319
e 278 320
e 278 321
e 278 322
e 323 324
e 323 325
e 323 326
e 323 327
e 323 328
e 323 329
e 323 330
e 323 331
e 323 332
e 323 333
e 323 334
e 323 335
e 323 336
e 323 337
e 323 338
e 323 339
e 323 340
e 323 341
e 323 342
e 323 343
e 323 344
e 323 345
e 323 346
e 323 347
e 323 348
e 323 349
e 323 350
e 323 351
e 323 352
e 323 353
e 323 354
e 323 355
e 323 356
e 323 357
e 323 358
e 323 359
e 323 360
e 323 361
e 323 362
e 323 363
e 323 364
e 323 365
e 323 366
e 323 367
e 323 368
e 323 369
e 323 370
e 323 371
e 323 372
e 323 373
e 323 374
e 375 376
e 375 377
e 375 378
e 375 379
e 375 380
e 375 381
e 375 382
e 375 383
e 375 384
e 375 385
e 375 386
e 375 387
e 375 388
e 375 389
e 390 391
e 390 392
e 390 393
e 390 394
e 390 395
e 390 396
e 390 397
e 390 398
e 390 399
e 390 400
e 390 401
e 390 402
e 390 403
e 390 404
e 390 405
e 390 406
e 390 407
e 390 408
e 390 409
e 390 410
e 390 411
e 390 412
e 390 413
e 390 414
e 390 415
e 390 416
e 390 417
e 390 418
e 390 419
e 390 420
e 390 421
e 390 422
e 390 423
e 390 424
e 390 425
e 390 426
e 390 427
e 390 428
e 390 429
e 390 430
e 390 431
e 390 432
e 390 433
e 390 434
e 390 435
e 390 436
e 390 437
e 390 438
e 390 439
e 390 440
e 390 441
e 390 442
e 390 443
e 390 444
e 390 445
e 390 446
e 390 447
e 390 448
e 449 450
e 449 451
e 449 452
e 449 453
e 449 454
e 449 455
e 449 456
e 449 457
e 449 458
e 449 459
e 449 460
e 449 461
e 449 462
e 449 463
e 449 464
e 449 465
e 449 466
e 449 467
e 449 468
e 449 469
e 470 471
e 470 472
e 470 473
e 470 474
e 470 475
e 470 476
e 470 477
e 470 478
e 470 479
e 470 480
e 470 481
e 470 482
e 470 483
e 470 484
e 470 485
e 470 486
e 470 487
e 488 489
e 488 490
e 488 491
e 488 492
e 488 493
e 488 494
e 488 495
e 488 496
e 488 497
e 488 498
e 488 499
e 488 500
e 488 501
e 488 502
e 488 503
e 488 504
e 488 505
e 488 506
e 488 507
e 488 508
e 488 509
e 510 511
e 510 512
e 510 513
e 510 514
e 510 515
e 510 516
e 510 517
e 510 518
e 510 519
e 510 520
e 510 521
e 510 522
e 510 523
e 510 524
e 510 525
e 510 526
e 510 527
e 510 528
e 510 529
e 510 530
e 510 531
e 510 532
e 510 533
e 510 534
e 510 535
e 510 536
e 510 537
e 510 538
e 510 539
e 510 540
e 510 541
e 510 542
e 510 543
e 510 544
e 510 545
e 510 546
e 510 547
e 510 548
e 510 549
e 510 550
e 510 551
e 510 552
e 510 553
e 510 554
e 510 555
e 510 556
e 510 557
e 510 558
e 510 559
e 510 560
e 510 561
e 510 562
e 510 563
e 510 564
e 510 565
e 510 566
e 510 567
e 510 568
e 510 569
e 510 570
e 510 571
e 510 572
e 573 574
e 573 575
e 573 576
e 573 577
e 573 578
e 573 579
e 573 580
e 573 581
e 573 582
e 573 583
e 573 584
e 573 585
e 573 586
e 573 587
e 573 588
e 573 589
e 573 590
e 573 591
e 573 592
e 573 593
e 573 594
e 573 595
e 573 596
e 573 597
e 573 598
e 599 600
e 599 601
e 599 602
e 599 603
e 599 604
e 599 605
e 599 606
e 599 607
e 599 608
e 599 609
e 599 610
e 599 611
e 599 612
e 599 613
e 599 614
e 599 615
e 599 616
e 599 617
e 599 618
e 599 619
e 599 620
e 599 621
e 599 622
e 599 623
e 599 624
e 599 625
e 599 626
e 599 627
e 599 628
e 599 629
e 599 630
e 631 632
e 631 633
e 631 634
e 631 635
e 631 636
e 631 637
e 631 638
e 631 639
e 631 640
e 631 641
e 631 642
e 631 643
e 631 644
e 631 645
e 631 646
e 631 647
e 631 648
e 631 649
e 631 650
e 631 651
e 631 652
e 631 653
e 631 654
e 655 656
e 655 657
e 655 658
e 655 659
e 655 660
e 655 661
e 655 662
e 655 663
e 655 664
e 655 665
e 655 666
e 655 667
e 655 668
e 655 669
e 655 670
e 655 671
e 655 672
e 655 673
e 655 674
e 655 675
e 655 676
e 655 677
e 655 678
e 655 679
e 655 680
e 655 681
e 655 682
e 655 683
e 655 684
e 655 685
e 655 686
e 655 687
e 655 688
e 655 689
e 655 690
e 655 691
e 655 692
e 655 693
e 694 695
e 694 696
e 694 697
e 694 698
e 694 699
e 694 700
e 694 701
e 694 702
e 694 703
e 694 704
e 694 705
e 694 706
e 694 707
e 694 708
e 694 709
e 694 710
e 694 711
e 694 712
e 694 713
e 694 714
e 694 715
e 694 716
e 694 717
e 694 718
e 694 719
e 694 720
e 694 721
e 694 722
e 694 723
e 694 724
e 694 725
e 694 726
e 694 727
e 694 728
e 694 729
e 694 730
e 694 731
e 694 732
e 694 733
e 694 734
e 735 736
e 735 737
e 735 738
e 735 739
e 735 740
e 735 741
e 735 742
e 735 743
e 735 744
e 735 745
e 735 746
e 735 747
e 735 748
e 735 749
e 735 750
e 735 751
e 735 752
e 735 753
e 735 754
e 735 755
e 735 756
e 735 757
e 735 758
e 735 759
e 735 760
e 735 761
e 735 762
e 735 763
e 735 764
e 735 765
e 735 766
e 735 767
e 735 768
e 735 769
e 735 770
e 735 771
e 735 772
e 735 773
e 735 774
e 735 775
e 735 776
e 735 777
e 735 778
e 735 779
e 735 780
e 735 781
e 735 782
e 735 783
e 735 784
e 785 786
e 785 787
e 785 788
e 785 789
e 785 790
e 785 791
e 785 792
e 785 793
e 785 794
e 785 795
e 785 796
e 785 797
e 785 798
e 785 799
e 785 800
e 785 801
e 802 803
e 802 804
e 802 805
e 802 806
e 802 807
e 802 808
e 802 809
e 802 810
e 802 811
e 802 812
e 802 813
e 802 814
e 802 815
e 802 816
e 802 817
e 802 818
e 802 819
e 802 820
e 802 821
e 802 822
e 802 823
e 802 824
e 802 825
e 802 826
e 802 827
e 802 828
e 802 829
e 802 830
e 802 831
e 802 832
e 802 833
e 802 834
e 802 835
e 802 836
e 802 837
e 802 838
e 802 839
e 840 841
e 840 842
e 840 843
e 840 844
e 840 845
e 840 846
e 840 847
e 840 848
e 840 849
e 840 850
e 840 851
e 840 852
e 840 853
e 840 854
e 840 855
e 840 856
e 840 857
e 840 858
e 840 859
e 840 860
e 840 861
e 840 862
e 840 863
e 864 865
e 864 866
e 864 867
e 864 868
e 864 869
e 864 870
e 864 871
e 864 872
e 864 873
e 864 874
e 864 875
e 864 876
e 864 877
e 864 878
e 864 879
e 864 880
e 864 881
e 864 882
e 864 883
e 864 884
e 864 885
e 864 886
e 864 887
e 864 888
e 889 890
e 889 891
e 889 892
e 889 893
e 889 894
e 889 895
e 889 896
e 889 897
e 889 898
e 889 899
e 889 900
e 889 901
e 889 902
e 889 903
e 889 904
e 889 905
e 889 906
e 889 907
e 889 908
e 889 909
e 889 910
e 889 911
e 889 912
e 889 913
e 889 914
e 889 915
e 889 916
e 889 917
e 889 918
e 889 919
e 889 920
e 889 921
e 889 922
e 889 923
e 889 924
e 889 925
e 889 926
e 889 927
e 889 928
e 889 929
e 889 930
e 889 931
e 889 932
e 889 933
e 889 934
e 889 935
e 889 936
e 889 937
e 889 938
e 889 939
e 889 940
e 889 941
e 889 942
e 889 943
e 889 944
e 889 945
e 889 946
e 889 947
e 889 948
e 889 949
